
List of user-set options:

                                    Name   Value                used
                           compl_inf_tol = 1                     yes
                         constr_viol_tol = 1                     yes
                            dual_inf_tol = 1000                  yes
                           linear_solver = ma97                  yes
                              ma86_small = 1e-30                  no
                                  ma86_u = 0.0001                 no
                              ma97_order = best                  yes
                              ma97_small = 1e-30                 yes
                            ma97_switch1 = at_start              yes
                            ma97_switch2 = od_hd_reuse           yes
                                  ma97_u = 1e-06                 yes
                               ma97_umax = 0.5                   yes
                                max_iter = 1000                  yes
                    max_refinement_steps = 20                    yes
                    min_refinement_steps = 5                     yes
                                 mu_init = 1e-06                 yes
           mu_superlinear_decrease_power = 1.25                  yes
                   nlp_scaling_min_value = 1e-08                 yes
                        option_file_name = Preset_Case_305_pf.opt  yes
                             output_file = ./tmp/Preset_Case_305_pf.output  yes
                      print_user_options = yes                   yes
        required_infeasibility_reduction = 1                      no
                                     tol = 1e-08                 yes
                   warm_start_bound_frac = 1e-20                 yes
                   warm_start_bound_push = 1e-20                 yes
                   warm_start_init_point = yes                   yes
              warm_start_mult_bound_push = 1e-20                 yes
                warm_start_mult_init_max = 1e+40                 yes
             warm_start_slack_bound_frac = 1e-20                 yes
             warm_start_slack_bound_push = 1e-20                 yes

******************************************************************************
This program contains Ipopt, a library for large-scale nonlinear optimization.
 Ipopt is released as open source code under the Eclipse Public License (EPL).
         For more information visit http://projects.coin-or.org/Ipopt
******************************************************************************

This is Ipopt version 3.12.10, running with linear solver ma97.

Number of nonzeros in equality constraint Jacobian...:   123443
Number of nonzeros in inequality constraint Jacobian.:      213
Number of nonzeros in Lagrangian Hessian.............:    49069

Total number of variables............................:    31591
                     variables with only lower bounds:    12912
                variables with lower and upper bounds:    15130
                     variables with only upper bounds:        0
Total number of equality constraints.................:    31483
Total number of inequality constraints...............:       25
        inequality constraints with only lower bounds:        4
   inequality constraints with lower and upper bounds:        0
        inequality constraints with only upper bounds:       21

iter    objective    inf_pr   inf_du lg(mu)  ||d||  lg(rg) alpha_du alpha_pr  ls
   0 -4.9704187e+00 4.04e-03 1.02e+00  -6.0 0.00e+00    -  0.00e+00 0.00e+00   0
   1 -4.9795962e+00 9.19e+00 6.14e+01  -6.0 3.40e+05    -  9.81e-05 1.37e-03h  1
   2 -4.9795534e+00 9.19e+00 6.14e+01  -6.0 6.29e+02    -  1.06e-04 3.25e-05h  1
   3 -4.9727766e+00 9.16e+00 2.19e+02  -6.0 1.61e+04    -  1.03e-04 2.77e-03h  1
   4 -4.9702481e+00 9.14e+00 2.25e+02  -6.0 1.46e+03    -  2.42e-01 1.99e-03h  1
   5 -4.9697335e+00 9.14e+00 2.25e+02  -6.0 6.31e+02    -  2.36e-03 3.71e-04h  8
   6 -4.9696365e+00 9.14e+00 2.25e+02  -6.0 1.45e+03    -  7.13e-03 7.70e-05h 13
   7 -4.9695879e+00 9.14e+00 2.26e+02  -6.0 1.46e+03    -  3.85e-03 3.87e-05h 14
   8 -4.9695634e+00 9.14e+00 2.27e+02  -6.0 1.46e+03    -  1.50e-02 1.94e-05h 15
   9 -4.9695506e+00 9.14e+00 2.27e+02  -6.0 1.46e+03    -  3.12e-03 1.02e-05h 16
iter    objective    inf_pr   inf_du lg(mu)  ||d||  lg(rg) alpha_du alpha_pr  ls
  10 -4.8563886e+00 8.19e+00 4.56e+04  -6.0 1.46e+03    -  5.13e-02 1.04e-01H  1
  11 -4.8562874e+00 8.19e+00 4.56e+04  -6.0 1.85e+03    -  1.45e-07 1.28e-04h  1
  12 -4.6837694e+00 6.46e+00 5.08e+04  -6.0 1.49e+03    -  1.75e-02 2.11e-01h  1
  13 -4.6837733e+00 6.46e+00 5.08e+04  -6.0 3.20e+02  -2.0 2.13e-04 8.78e-05h  1
  14 -4.6837599e+00 6.46e+00 5.08e+04  -6.0 3.26e+02  -2.5 8.89e-04 3.84e-04h  1
  15 -4.6830313e+00 6.45e+00 5.07e+04  -6.0 2.41e+02  -3.0 1.71e-03 1.52e-03h  1
  16 -4.6774551e+00 6.37e+00 4.98e+04  -6.0 2.51e+02  -3.4 1.60e-03 1.17e-02h  1
  17 -4.6266376e+00 5.70e+00 3.44e+04  -6.0 2.56e+02  -3.9 3.53e-02 1.07e-01h  1
  18 -4.5987846e+00 5.05e+00 2.93e+04  -6.0 2.61e+02  -4.4 1.40e-01 1.16e-01h  1
  19 -4.5995355e+00 5.01e+00 2.91e+04  -6.0 2.89e+02  -4.9 4.11e-01 8.95e-03h  1
iter    objective    inf_pr   inf_du lg(mu)  ||d||  lg(rg) alpha_du alpha_pr  ls
  20 -4.6354263e+00 4.67e+00 2.83e+04  -6.0 4.25e+02  -5.3 4.27e-01 6.68e-02h  1
  21 -4.7028282e+00 4.60e+00 3.14e+04  -6.0 1.57e+03  -5.8 8.35e-07 1.70e-02h  1
  22 -4.7241294e+00 4.28e+00 6.13e+04  -6.0 2.34e+03  -6.3 3.95e-02 7.79e-02h  1
  23 -4.7399813e+00 4.19e+00 6.03e+04  -6.0 1.16e+03  -6.8 2.38e-05 1.96e-02h  1
  24 -4.8836275e+00 8.60e+00 2.27e+05  -6.0 4.42e+02  -6.3 2.33e-01 4.30e-01h  1
  25 -4.8837416e+00 8.60e+00 2.27e+05  -6.0 1.48e+03    -  8.44e-02 2.24e-04h  1
  26 -4.9552120e+00 6.85e+00 9.82e+04  -6.0 2.69e+02  -6.8 3.99e-02 2.06e-01f  1
  27 -4.9560251e+00 6.83e+00 9.79e+04  -6.0 3.52e+02  -7.3 2.24e-06 2.29e-03h  1
  28 -4.9696961e+00 6.59e+00 9.46e+04  -6.0 4.30e+02  -7.8 1.20e-01 3.55e-02h  1
  29 -5.0617184e+00 5.07e+00 7.83e+04  -6.0 8.37e+02  -8.3 3.19e-02 2.32e-01h  1
iter    objective    inf_pr   inf_du lg(mu)  ||d||  lg(rg) alpha_du alpha_pr  ls
  30 -5.1146528e+00 4.22e+00 6.52e+04  -6.0 1.32e+03  -8.7 5.43e-02 1.66e-01h  1
  31 -5.1802540e+00 3.11e+00 4.82e+04  -6.0 6.88e+02  -8.3 2.66e-01 2.62e-01h  1
  32 -5.2358954e+00 2.18e+00 3.45e+04  -6.0 1.06e+03  -8.8 2.72e-01 2.92e-01h  1
  33 -5.2393645e+00 2.10e+00 3.32e+04  -6.0 2.21e+03  -9.3 2.08e-01 3.77e-02h  1
  34 -5.2587691e+00 8.10e+00 2.68e+04  -6.0 2.99e+03  -9.7 1.88e-01 1.86e-01h  1
  35 -5.2916716e+00 4.25e+01 1.60e+04  -6.0 3.37e+03    -  4.51e-01 3.81e-01h  1
  36 -5.3057997e+00 7.62e+01 1.14e+04  -6.0 5.41e+03    -  2.08e-01 2.81e-01h  1
  37 -5.3213835e+00 5.03e+01 6.75e+03  -6.0 2.69e+03    -  7.15e-02 4.02e-01h  1
  38 -5.3406768e+00 7.08e+01 7.81e+03  -6.0 2.29e+03    -  1.46e-01 7.52e-01h  1
  39 -5.3453677e+00 7.00e+01 3.40e+03  -6.0 2.81e+03  -8.4 6.22e-01 3.99e-01h  1
iter    objective    inf_pr   inf_du lg(mu)  ||d||  lg(rg) alpha_du alpha_pr  ls
  40 -5.3511923e+00 3.99e+01 2.79e+05  -6.0 8.79e+02  -8.0 7.65e-05 5.03e-01h  1
  41 -5.3555176e+00 2.82e+01 1.97e+05  -6.0 1.75e+03  -8.5 1.93e-02 2.93e-01h  1
  42 -5.3587103e+00 1.42e+01 9.77e+04  -6.0 8.40e+02    -  2.95e-04 5.04e-01h  1
  43 -5.3722423e+00 1.08e+01 1.85e+04  -6.0 8.34e+02    -  2.32e-04 1.00e+00h  1
  44 -5.3852799e+00 1.15e+01 2.24e+04  -6.0 7.13e+02    -  5.31e-01 1.00e+00h  1
  45 -5.3901079e+00 1.13e+01 2.09e+04  -6.0 3.88e+03    -  9.52e-02 1.02e-01h  1
  46 -5.3919553e+00 6.91e+00 5.90e+04  -6.0 4.24e+02    -  1.00e+00 4.10e-01h  1
  47 -5.4034943e+00 7.52e-01 4.06e+03  -6.0 1.62e+02  -8.9 9.69e-01 1.00e+00h  1
  48 -5.4077437e+00 2.35e+01 4.32e+04  -6.0 3.47e+03    -  3.54e-01 2.92e-01h  1
  49 -5.4114174e+00 1.93e+01 6.66e+05  -6.0 6.49e+02    -  6.05e-01 1.90e-01h  1
iter    objective    inf_pr   inf_du lg(mu)  ||d||  lg(rg) alpha_du alpha_pr  ls
  50r-5.4114174e+00 1.93e+01 1.00e+03   1.2 0.00e+00    -  0.00e+00 1.43e-07R  2
  51r-5.4153753e+00 1.93e+01 1.00e+03   1.2 7.90e+04    -  1.45e-07 6.51e-08f  1
  52 -5.4146184e+00 1.67e+01 1.23e+05  -6.0 8.63e+00    -  1.11e-06 1.37e-01h  1
  53 -5.4130710e+00 1.12e+01 8.25e+04  -6.0 7.45e+00    -  2.06e-01 3.30e-01h  1
  54 -5.4119974e+00 7.05e+00 5.20e+04  -6.0 4.98e+00    -  3.30e-01 3.70e-01h  1
  55 -5.4108080e+00 2.13e+00 1.57e+04  -6.0 3.14e+00    -  7.70e-01 6.98e-01h  1
  56 -5.4107579e+00 1.29e+00 9.49e+03  -6.0 1.59e+00    -  9.46e-01 3.95e-01h  1
  57 -5.4144212e+00 1.02e-02 3.50e+01  -6.0 1.60e+01    -  8.75e-01 1.00e+00h  1
  58 -5.4249360e+00 1.21e-01 3.38e+01  -6.0 9.97e+01    -  2.03e-01 5.43e-01h  1
  59 -5.4250164e+00 8.63e-02 1.03e+02  -6.0 3.77e+01    -  5.46e-01 3.34e-01h  1
iter    objective    inf_pr   inf_du lg(mu)  ||d||  lg(rg) alpha_du alpha_pr  ls
  60 -5.4258813e+00 1.69e-01 2.10e+01  -6.0 6.54e+01    -  9.64e-01 1.00e+00f  1
  61 -5.4308457e+00 1.21e+00 1.67e+01  -6.0 4.69e+02    -  4.31e-01 4.20e-01h  1
  62 -5.4333371e+00 1.19e+00 3.47e+02  -6.0 4.76e+02  -7.6 9.11e-01 1.61e-01h  1
  63 -5.4395630e+00 8.89e-01 1.64e+03  -6.0 2.88e+02    -  6.39e-01 4.78e-01h  1
  64 -5.4434211e+00 8.38e-01 1.79e+04  -6.0 3.16e+02    -  9.79e-01 2.28e-01h  1
  65 -5.4591050e+00 1.67e+00 4.55e+03  -6.0 2.85e+02    -  6.77e-01 1.00e+00h  1
  66 -5.4642892e+00 1.19e+00 8.17e+04  -6.0 2.12e+02    -  1.00e+00 2.90e-01h  1
  67 -5.4769779e+00 9.86e-01 1.29e+04  -6.0 2.12e+02    -  6.04e-01 7.16e-01h  1
  68 -5.4964892e+00 1.25e+00 9.92e+04  -6.0 2.11e+02    -  6.83e-01 9.98e-01h  1
  69 -5.4965092e+00 1.25e+00 1.03e+05  -6.0 2.69e+03  -7.2 4.69e-02 9.36e-05h  1
iter    objective    inf_pr   inf_du lg(mu)  ||d||  lg(rg) alpha_du alpha_pr  ls
  70 -5.5057804e+00 1.13e+00 9.20e+05  -6.0 4.87e+02    -  7.32e-01 3.28e-01f  1
  71 -5.5128570e+00 8.54e+00 1.47e+08  -6.0 7.94e+02    -  8.71e-03 8.35e-01h  1
  72 -5.5139446e+00 5.49e+01 1.25e+08  -6.0 1.08e+04    -  3.96e-02 1.49e-01h  1
  73 -5.5159445e+00 4.63e+01 1.04e+08  -6.0 1.00e+03    -  2.45e-04 1.65e-01h  1
  74 -5.5162032e+00 4.45e+01 1.00e+08  -6.0 1.20e+03    -  3.09e-01 4.03e-02h  1
  75 -5.5162727e+00 1.95e+00 7.58e+05  -6.0 3.57e+02    -  2.36e-01 1.00e+00h  1
  76 -5.5135248e+00 1.39e+00 5.42e+05  -6.0 2.11e+02  -7.7 5.49e-02 2.86e-01h  1
  77 -5.5135157e+00 1.40e+00 5.42e+05  -6.0 3.18e+04    -  5.09e-02 8.09e-04h  7
  78 -5.5026652e+00 1.40e+00 5.25e+03  -6.0 2.13e+02  -8.1 4.03e-01 1.00e+00h  1
  79 -5.5112916e+00 1.79e+00 9.38e+03  -6.0 6.91e+02    -  5.52e-01 5.43e-01H  1
iter    objective    inf_pr   inf_du lg(mu)  ||d||  lg(rg) alpha_du alpha_pr  ls
  80 -5.5107234e+00 1.52e+00 3.28e+04  -6.0 4.05e+02    -  7.09e-01 2.41e-01h  1
  81 -5.5142188e+00 7.44e-01 1.59e+03  -6.0 1.54e+02    -  9.58e-01 1.00e+00h  1
  82 -5.5124189e+00 3.57e-02 1.54e+04  -6.0 3.30e+01  -8.6 4.81e-01 1.00e+00h  1
  83 -5.5123007e+00 4.00e-02 9.95e+00  -6.0 1.38e+01  -9.1 1.00e+00 1.00e+00h  1
  84 -5.5122826e+00 8.97e-03 6.72e+00  -6.0 2.87e+01    -  1.00e+00 1.00e+00H  1
  85 -5.5122823e+00 2.55e-03 1.88e-04  -6.0 4.78e+00    -  1.00e+00 1.00e+00h  1
  86 -5.5122824e+00 1.37e-04 9.57e-06  -6.0 1.09e+00    -  1.00e+00 1.00e+00h  1
  87 -5.5122824e+00 3.12e-10 1.92e-11  -6.0 1.36e-03    -  1.00e+00 1.00e+00h  1
  88 -5.5124681e+00 4.74e+00 7.63e+01  -7.5 7.25e+02    -  3.98e-01 6.61e-01f  1
  89 -5.5124929e+00 3.32e+00 1.63e+01  -7.5 5.12e+02    -  8.00e-01 8.11e-01h  1
iter    objective    inf_pr   inf_du lg(mu)  ||d||  lg(rg) alpha_du alpha_pr  ls
  90 -5.5124741e+00 2.73e-01 1.15e-01  -7.5 1.10e+02    -  1.00e+00 1.00e+00h  1
  91 -5.5124720e+00 5.11e-04 3.37e-04  -7.5 5.19e+00    -  1.00e+00 1.00e+00h  1
  92 -5.5124720e+00 3.84e-07 6.30e-08  -7.5 1.33e-01    -  1.00e+00 1.00e+00h  1
  93 -5.5124737e+00 1.63e-02 8.29e-01  -9.0 3.28e+01    -  9.26e-01 8.35e-01h  1
  94 -5.5124739e+00 4.03e-04 4.47e-04  -9.0 4.29e+00    -  1.00e+00 1.00e+00h  1
  95 -5.5124739e+00 1.98e-06 3.29e-07  -9.0 3.02e-01    -  1.00e+00 1.00e+00h  1
  96 -5.5124739e+00 3.78e-10 8.47e-11  -9.0 4.11e-03    -  1.00e+00 1.00e+00h  1

Number of Iterations....: 96

                                   (scaled)                 (unscaled)
Objective...............:  -4.3066202476986941e+00   -5.5124739170543284e+00
Dual infeasibility......:   8.4706264369244610e-11    1.0842401839263311e-10
Constraint violation....:   3.1093355807117473e-10    3.7834979593753815e-10
Complementarity.........:   9.3718642444303597e-10    1.1995986232870860e-09
Overall NLP error.......:   9.3718642444303597e-10    1.1995986232870860e-09


Number of objective function evaluations             = 175
Number of objective gradient evaluations             = 97
Number of equality constraint evaluations            = 175
Number of inequality constraint evaluations          = 175
Number of equality constraint Jacobian evaluations   = 98
Number of inequality constraint Jacobian evaluations = 98
Number of Lagrangian Hessian evaluations             = 96
Total CPU secs in IPOPT (w/o function evaluations)   =    217.907
Total CPU secs in NLP function evaluations           =      4.058

EXIT: Optimal Solution Found.
